\ Model matlab
\ LP format - for model browsing. Use MPS format to capture full model detail.
Minimize
  - 7.77156e-19 C1 - 7.77156e-19 C2 - 0.064 C4 - 0.064 C5 - 0.064 C7
   - 0.064 C8 - 0.064 C10 - 0.064 C11 - 0.064 C13 - 0.064 C14 - 0.064 C16
   - 0.064 C17 - 0.064 C19 - 0.064 C20 - 0.064 C22 - 0.064 C23 - 0.064 C25
   - 0.064 C26 - 0.064 C28 - 0.064 C29 - 0.064 C31 - 0.064 C32 - 0.064 C34
   - 0.064 C35 - 0.064 C37 - 0.064 C38 - 0.064 C40 - 0.064 C41 - 0.064 C43
   - 0.064 C44 - 0.064 C46 - 0.064 C47 - 0.064 C49 - 0.064 C50 - 0.064 C52
   - 0.064 C53 - 0.064 C55 - 0.064 C56 - 0.064 C58 - 0.064 C59 - 0.064 C61
   - 0.064 C62 - 0.064 C64 - 0.064 C65 - 0.064 C67 - 0.064 C68 - 0.064 C70
   - 0.064 C71 - 0.064 C73 - 0.064 C74 + 0 C75 + 0 C76 + 0 C77 + 0 C78
   + 0 C79 + 0 C80 + 0 C84 + 0 C85 + 0 C86 + 341.8431209243773 C87
   - 774.9229532887216 C88 + 1292.233697005713 C89 - 851.9005304521309 C90
   + 0 C93 + 0 C94 + 0 C95 + 341.8431209243773 C96 - 774.9229532887216 C97
   + 1292.233697005713 C98 - 851.9005304521309 C99 + 0 C102 + 0 C103
   + 0 C104 + 341.8431209243773 C105 - 774.9229532887216 C106
   + 1292.233697005713 C107 - 851.9005304521309 C108 + 0 C111 + 0 C112
   + 0 C113 + 341.8431209243773 C114 - 774.9229532887216 C115
   + 1292.233697005713 C116 - 851.9005304521309 C117 + 0 C120 + 0 C121
   + 0 C122 + 341.8431209243773 C123 - 774.9229532887216 C124
   + 1292.233697005713 C125 - 851.9005304521309 C126 + 0 C129 + 0 C130
   + 0 C131 + 341.8431209243773 C132 - 774.9229532887216 C133
   + 1292.233697005713 C134 - 851.9005304521309 C135 + 0 C138 + 0 C139
   + 0 C140 + 341.8431209243773 C141 - 774.9229532887216 C142
   + 1292.233697005713 C143 - 851.9005304521309 C144 + 0 C147 + 0 C148
   + 0 C149 + 341.8431209243773 C150 - 774.9229532887216 C151
   + 1292.233697005713 C152 - 851.9005304521309 C153 + 0 C156 + 0 C157
   + 0 C158 + 341.8431209243773 C159 - 774.9229532887216 C160
   + 1292.233697005713 C161 - 851.9005304521309 C162 + 0 C165 + 0 C166
   + 0 C167 + 341.8431209243773 C168 - 774.9229532887216 C169
   + 1292.233697005713 C170 - 851.9005304521309 C171 + 0 C174 + 0 C175
   + 0 C176 + 341.8431209243773 C177 - 774.9229532887216 C178
   + 1292.233697005713 C179 - 851.9005304521309 C180 + 0 C183 + 0 C184
   + 0 C185 + 341.8431209243773 C186 - 774.9229532887216 C187
   + 1292.233697005713 C188 - 851.9005304521309 C189 + 0 C192 + 0 C193
   + 0 C194 + 341.8431209243773 C195 - 774.9229532887216 C196
   + 1292.233697005713 C197 - 851.9005304521309 C198 + 0 C201 + 0 C202
   + 0 C203 + 341.8431209243773 C204 - 774.9229532887216 C205
   + 1292.233697005713 C206 - 851.9005304521309 C207 + 0 C210 + 0 C211
   + 0 C212 + 341.8431209243773 C213 - 774.9229532887216 C214
   + 1292.233697005713 C215 - 851.9005304521309 C216 + 0 C219 + 0 C220
   + 0 C221 + 341.8431209243773 C222 - 774.9229532887216 C223
   + 1292.233697005713 C224 - 851.9005304521309 C225 + 0 C228 + 0 C229
   + 0 C230 + 341.8431209243773 C231 - 774.9229532887216 C232
   + 1292.233697005713 C233 - 851.9005304521309 C234 + 0 C237 + 0 C238
   + 0 C239 + 341.8431209243773 C240 - 774.9229532887216 C241
   + 1292.233697005713 C242 - 851.9005304521309 C243 + 0 C246 + 0 C247
   + 0 C248 + 341.8431209243773 C249 - 774.9229532887216 C250
   + 1292.233697005713 C251 - 851.9005304521309 C252 + 0 C255 + 0 C256
   + 0 C257 + 341.8431209243773 C258 - 774.9229532887216 C259
   + 1292.233697005713 C260 - 851.9005304521309 C261 + 0 C264 + 0 C265
   + 0 C266 + 341.8431209243773 C267 - 774.9229532887216 C268
   + 1292.233697005713 C269 - 851.9005304521309 C270 + 0 C273 + 0 C274
   + 0 C275 + 341.8431209243773 C276 - 774.9229532887216 C277
   + 1292.233697005713 C278 - 851.9005304521309 C279 + 0 C282 + 0 C283
   + 0 C284 + 341.8431209243773 C285 - 774.9229532887216 C286
   + 1292.233697005713 C287 - 851.9005304521309 C288
   + 341.8431209243773 C294 - 774.9229532887216 C295
   + 1292.233697005713 C296 - 851.9005304521309 C297 + 0 C300 + 0 C301
   + 0 C302 + 0 C303 - 1.66533e-18 C304 - 1.66533e-18 C305
   - 68.36862418487546 C306 + 119.2189158905726 C307
   - 117.475790636883 C308 + 80.57749855968201 C309 + 0.02 C310 + 0.02 C311
   - 68.36862418487546 C312 + 119.2189158905726 C313
   - 117.475790636883 C314 + 80.57749855968201 C315 + 0.02 C316 + 0.02 C317
   - 68.36862418487546 C318 + 119.2189158905726 C319
   - 117.475790636883 C320 + 80.57749855968201 C321 + 0.02 C322 + 0.02 C323
   - 68.36862418487546 C324 + 119.2189158905726 C325
   - 117.475790636883 C326 + 80.57749855968201 C327 + 0.02 C328 + 0.02 C329
   - 68.36862418487546 C330 + 119.2189158905726 C331
   - 117.475790636883 C332 + 80.57749855968201 C333 + 0.02 C334 + 0.02 C335
   - 68.36862418487546 C336 + 119.2189158905726 C337
   - 117.475790636883 C338 + 80.57749855968201 C339 + 0.02 C340 + 0.02 C341
   - 68.36862418487546 C342 + 119.2189158905726 C343
   - 117.475790636883 C344 + 80.57749855968201 C345 + 0.02 C346 + 0.02 C347
   - 68.36862418487546 C348 + 119.2189158905726 C349
   - 117.475790636883 C350 + 80.57749855968201 C351 + 0.02 C352 + 0.02 C353
   - 68.36862418487546 C354 + 119.2189158905726 C355
   - 117.475790636883 C356 + 80.57749855968201 C357 + 0.02 C358 + 0.02 C359
   - 68.36862418487546 C360 + 119.2189158905726 C361
   - 117.475790636883 C362 + 80.57749855968201 C363 + 0.02 C364 + 0.02 C365
   - 68.36862418487546 C366 + 119.2189158905726 C367
   - 117.475790636883 C368 + 80.57749855968201 C369 + 0.02 C370 + 0.02 C371
   - 68.36862418487546 C372 + 119.2189158905726 C373
   - 117.475790636883 C374 + 80.57749855968201 C375 + 0.02 C376 + 0.02 C377
   - 68.36862418487546 C378 + 119.2189158905726 C379
   - 117.475790636883 C380 + 80.57749855968201 C381 + 0.02 C382 + 0.02 C383
   - 68.36862418487546 C384 + 119.2189158905726 C385
   - 117.475790636883 C386 + 80.57749855968201 C387 + 0.02 C388 + 0.02 C389
   - 68.36862418487546 C390 + 119.2189158905726 C391
   - 117.475790636883 C392 + 80.57749855968201 C393 + 0.02 C394 + 0.02 C395
   - 68.36862418487546 C396 + 119.2189158905726 C397
   - 117.475790636883 C398 + 80.57749855968201 C399 + 0.02 C400 + 0.02 C401
   - 68.36862418487546 C402 + 119.2189158905726 C403
   - 117.475790636883 C404 + 80.57749855968201 C405 + 0.02 C406 + 0.02 C407
   - 68.36862418487546 C408 + 119.2189158905726 C409
   - 117.475790636883 C410 + 80.57749855968201 C411 + 0.02 C412 + 0.02 C413
   - 68.36862418487546 C414 + 119.2189158905726 C415
   - 117.475790636883 C416 + 80.57749855968201 C417 + 0.02 C418 + 0.02 C419
   - 68.36862418487546 C420 + 119.2189158905726 C421
   - 117.475790636883 C422 + 80.57749855968201 C423 + 0.02 C424 + 0.02 C425
   - 68.36862418487546 C426 + 119.2189158905726 C427
   - 117.475790636883 C428 + 80.57749855968201 C429 + 0.02 C430 + 0.02 C431
   - 68.36862418487546 C432 + 119.2189158905726 C433
   - 117.475790636883 C434 + 80.57749855968201 C435 + 0.02 C436 + 0.02 C437
   - 68.36862418487546 C438 + 119.2189158905726 C439
   - 117.475790636883 C440 + 80.57749855968201 C441 + 0.02 C442 + 0.02 C443
   - 68.36862418487546 C444 + 119.2189158905726 C445
   - 117.475790636883 C446 + 80.57749855968201 C447 + 0.02 C448 + 0.02 C449
   + 0 C453 + 0 C454 + 0 C455 + 0 C456 + 0 C457 + 0 C458 + 0 C459 + 0 C460
   + 0 C461 + 0 C462 + 0 C463 + 0 C464 + 0 C465 + 0 C466 + 0 C467 + 0 C468
   + 0 C469 + 0 C470 + 0 C471 + 0 C472 + 0 C473 + 0 C474 + 10 C475
   + 10 C476 + 10 C477 + 10 C478 + 10 C479 + 10 C480 + 10 C481 + 10 C482
   + 10 C483 + 10 C484 + 10 C485 + 10 C486 + 10 C487 + 10 C488 + 10 C489
   + 10 C490 + 10 C491 + 10 C492 + 10 C493 + 10 C494 + 10 C495 + 10 C496
   + 10 C497 + 10 C498 + 10 C499 + 3 C500 + 3 C501 + 3 C502 + 3 C503
   + 3 C504 + 3 C505 + 3 C506 + 3 C507 + 3 C508 + 3 C509 + 3 C510 + 3 C511
   + 3 C512 + 3 C513 + 3 C514 + 3 C515 + 3 C516 + 3 C517 + 3 C518 + 3 C519
   + 3 C520 + 3 C521 + 3 C522 + 3 C523 + 3 C524 + 9.449673790581599 C525
   + 10.69872981077807 C526 + 12.06647160272881 C527
   + 13.54915028125259 C528 + 15.14270192715144 C529
   + 16.84275872613027 C530 + 18.64466094067262 C531
   + 20.54346968205709 C532 + 22.53398044750811 C533
   + 24.61073738537633 C534 + 26.76804824924865 C535 + 29 C536
   + 31.30047501302265 C537 + 33.66316784620999 C538 + 36.081602522735 C539
   + 38.54915028125266 C540 + 41.05904774487392 C541 + 43.604415459112 C542
   + 46.17827674798844 C543 + 48.77357683661729 C544
   + 51.38320218785278 C545 + 54 C546 + 56.6167978121472 C547
   + 59.22642316338269 C548 + 61.82172325201153 C549
Subject To
 R0: 85.46078023109433 C285 - 193.7307383221804 C286
   + 323.0584242514282 C287 - 212.9751326130327 C288
   - 17.09215604621886 C438 + 29.80472897264314 C439
   - 29.36894765922074 C440 + 20.1443746399205 C441 <= 47.92
 R1: - 85.46078023109433 C285 + 193.7307383221804 C286
   - 323.0584242514282 C287 + 212.9751326130327 C288
   + 17.09215604621886 C438 - 29.80472897264314 C439
   + 29.36894765922074 C440 - 20.1443746399205 C441 <= 42.08
 R2: - 15 C294 + C444 <= 0
 R3: - C444 <= 0
 R4: - C72 + C444 <= -0
 R5: C72 + 15 C294 - C444 <= 15
 R6: - 15 C295 + C445 <= 0
 R7: - C445 <= 0
 R8: - C72 + C445 <= -0
 R9: C72 + 15 C295 - C445 <= 15
 R10: - 15 C296 + C446 <= 0
 R11: - C446 <= 0
 R12: - C72 + C446 <= -0
 R13: C72 + 15 C296 - C446 <= 15
 R14: - 15 C297 + C447 <= 0
 R15: - C447 <= 0
 R16: - C72 + C447 <= -0
 R17: C72 + 15 C297 - C447 <= 15
 R18: C294 - C297 <= 0
 R19: - C291 + C294 <= 0
 R20: C291 - C294 + C297 <= 1
 R21: C295 - C297 <= 0
 R22: - C292 + C295 <= 0
 R23: C292 - C295 + C297 <= 1
 R24: C296 - C297 <= 0
 R25: - C293 + C296 <= 0
 R26: C293 - C296 + C297 <= 1
 R27: C72 + 10 C291 <= 15
 R28: - C72 - 5 C291 <= -5
 R29: C72 + 8.5 C292 <= 15
 R30: - C72 - 6.5 C292 <= -6.5
 R31: C72 + 4 C293 <= 15
 R32: - C72 - 11 C293 <= -11
 R33: - 0.16 C70 + 0.05 C442 <= 10
 R34: 0.16 C70 - 0.05 C442 <= 38
 R35: - C73 <= 3
 R36: C73 <= 2
 R37: C73 - 2 C298 <= 2
 R38: - C73 - 3 C298 <= -1e-15
 R39: - 2 C298 + C448 <= 0
 R40: - 3 C298 - C448 <= 0
 R41: - C73 + 3 C298 + C448 <= 3
 R42: C73 + 2 C298 - C448 <= 2
 R43: - 0.16 C71 + 0.05 C443 <= 10
 R44: 0.16 C71 - 0.05 C443 <= 54
 R45: - C74 <= 4
 R46: C74 <= 3
 R47: C74 - 3 C299 <= 3
 R48: - C74 - 4 C299 <= -1e-15
 R49: - 3 C299 + C449 <= 0
 R50: - 4 C299 - C449 <= 0
 R51: - C74 + 4 C299 + C449 <= 4
 R52: C74 + 3 C299 - C449 <= 3
 R53: C81 - C90 - C476 <= 0
 R54: - C81 + C90 - C476 <= 0
 R55: - C90 + C99 - C477 <= 0
 R56: C90 - C99 - C477 <= 0
 R57: C99 - C108 - C478 <= 0
 R58: - C99 + C108 - C478 <= 0
 R59: - C108 + C117 - C479 <= 0
 R60: C108 - C117 - C479 <= 0
 R61: C117 - C126 - C480 <= 0
 R62: - C117 + C126 - C480 <= 0
 R63: - C126 + C135 - C481 <= 0
 R64: C126 - C135 - C481 <= 0
 R65: C135 - C144 - C482 <= 0
 R66: - C135 + C144 - C482 <= 0
 R67: - C144 + C153 - C483 <= 0
 R68: C144 - C153 - C483 <= 0
 R69: C153 - C162 - C484 <= 0
 R70: - C153 + C162 - C484 <= 0
 R71: - C162 + C171 - C485 <= 0
 R72: C162 - C171 - C485 <= 0
 R73: C171 - C180 - C486 <= 0
 R74: - C171 + C180 - C486 <= 0
 R75: - C180 + C189 - C487 <= 0
 R76: C180 - C189 - C487 <= 0
 R77: C189 - C198 - C488 <= 0
 R78: - C189 + C198 - C488 <= 0
 R79: - C198 + C207 - C489 <= 0
 R80: C198 - C207 - C489 <= 0
 R81: C207 - C216 - C490 <= 0
 R82: - C207 + C216 - C490 <= 0
 R83: - C216 + C225 - C491 <= 0
 R84: C216 - C225 - C491 <= 0
 R85: C225 - C234 - C492 <= 0
 R86: - C225 + C234 - C492 <= 0
 R87: - C234 + C243 - C493 <= 0
 R88: C234 - C243 - C493 <= 0
 R89: C243 - C252 - C494 <= 0
 R90: - C243 + C252 - C494 <= 0
 R91: - C252 + C261 - C495 <= 0
 R92: C252 - C261 - C495 <= 0
 R93: C261 - C270 - C496 <= 0
 R94: - C261 + C270 - C496 <= 0
 R95: - C270 + C279 - C497 <= 0
 R96: C270 - C279 - C497 <= 0
 R97: C279 - C288 - C498 <= 0
 R98: - C279 + C288 - C498 <= 0
 R99: - C288 + C297 - C499 <= 0
 R100: C288 - C297 - C499 <= 0
 R101: C82 - C91 - C501 <= 0
 R102: - C82 + C91 - C501 <= 0
 R103: - C91 + C100 - C502 <= 0
 R104: C91 - C100 - C502 <= 0
 R105: C100 - C109 - C503 <= 0
 R106: - C100 + C109 - C503 <= 0
 R107: - C109 + C118 - C504 <= 0
 R108: C109 - C118 - C504 <= 0
 R109: C118 - C127 - C505 <= 0
 R110: - C118 + C127 - C505 <= 0
 R111: - C127 + C136 - C506 <= 0
 R112: C127 - C136 - C506 <= 0
 R113: C136 - C145 - C507 <= 0
 R114: - C136 + C145 - C507 <= 0
 R115: - C145 + C154 - C508 <= 0
 R116: C145 - C154 - C508 <= 0
 R117: C154 - C163 - C509 <= 0
 R118: - C154 + C163 - C509 <= 0
 R119: - C163 + C172 - C510 <= 0
 R120: C163 - C172 - C510 <= 0
 R121: C172 - C181 - C511 <= 0
 R122: - C172 + C181 - C511 <= 0
 R123: - C181 + C190 - C512 <= 0
 R124: C181 - C190 - C512 <= 0
 R125: C190 - C199 - C513 <= 0
 R126: - C190 + C199 - C513 <= 0
 R127: - C199 + C208 - C514 <= 0
 R128: C199 - C208 - C514 <= 0
 R129: C208 - C217 - C515 <= 0
 R130: - C208 + C217 - C515 <= 0
 R131: - C217 + C226 - C516 <= 0
 R132: C217 - C226 - C516 <= 0
 R133: C226 - C235 - C517 <= 0
 R134: - C226 + C235 - C517 <= 0
 R135: - C235 + C244 - C518 <= 0
 R136: C235 - C244 - C518 <= 0
 R137: C244 - C253 - C519 <= 0
 R138: - C244 + C253 - C519 <= 0
 R139: - C253 + C262 - C520 <= 0
 R140: C253 - C262 - C520 <= 0
 R141: C262 - C271 - C521 <= 0
 R142: - C262 + C271 - C521 <= 0
 R143: - C271 + C280 - C522 <= 0
 R144: C271 - C280 - C522 <= 0
 R145: C280 - C289 - C523 <= 0
 R146: - C280 + C289 - C523 <= 0
 R147: - C289 + C298 - C524 <= 0
 R148: C289 - C298 - C524 <= 0
 R149: C83 - C92 - C526 <= 0
 R150: - C83 + C92 - C526 <= 0
 R151: - C92 + C101 - C527 <= 0
 R152: C92 - C101 - C527 <= 0
 R153: C101 - C110 - C528 <= 0
 R154: - C101 + C110 - C528 <= 0
 R155: - C110 + C119 - C529 <= 0
 R156: C110 - C119 - C529 <= 0
 R157: C119 - C128 - C530 <= 0
 R158: - C119 + C128 - C530 <= 0
 R159: - C128 + C137 - C531 <= 0
 R160: C128 - C137 - C531 <= 0
 R161: C137 - C146 - C532 <= 0
 R162: - C137 + C146 - C532 <= 0
 R163: - C146 + C155 - C533 <= 0
 R164: C146 - C155 - C533 <= 0
 R165: C155 - C164 - C534 <= 0
 R166: - C155 + C164 - C534 <= 0
 R167: - C164 + C173 - C535 <= 0
 R168: C164 - C173 - C535 <= 0
 R169: C173 - C182 - C536 <= 0
 R170: - C173 + C182 - C536 <= 0
 R171: - C182 + C191 - C537 <= 0
 R172: C182 - C191 - C537 <= 0
 R173: C191 - C200 - C538 <= 0
 R174: - C191 + C200 - C538 <= 0
 R175: - C200 + C209 - C539 <= 0
 R176: C200 - C209 - C539 <= 0
 R177: C209 - C218 - C540 <= 0
 R178: - C209 + C218 - C540 <= 0
 R179: - C218 + C227 - C541 <= 0
 R180: C218 - C227 - C541 <= 0
 R181: C227 - C236 - C542 <= 0
 R182: - C227 + C236 - C542 <= 0
 R183: - C236 + C245 - C543 <= 0
 R184: C236 - C245 - C543 <= 0
 R185: C245 - C254 - C544 <= 0
 R186: - C245 + C254 - C544 <= 0
 R187: - C254 + C263 - C545 <= 0
 R188: C254 - C263 - C545 <= 0
 R189: C263 - C272 - C546 <= 0
 R190: - C263 + C272 - C546 <= 0
 R191: - C272 + C281 - C547 <= 0
 R192: C272 - C281 - C547 <= 0
 R193: C281 - C290 - C548 <= 0
 R194: - C281 + C290 - C548 <= 0
 R195: - C290 + C299 - C549 <= 0
 R196: C290 - C299 - C549 <= 0
 R197: - C81 - C450 - C451 - C452 <= -0
 R198: C81 <= 0
 R199: - C82 <= -0
 R200: C82 <= 0
 R201: - C83 <= -0
 R202: C83 <= 0
 R203: C0 + C1 + C2 + C525 = 45
 R204: C3 + C4 + C5 + C526 = 45
 R205: C6 + C7 + C8 + C527 = 45
 R206: C9 + C10 + C11 + C528 = 45
 R207: C12 + C13 + C14 + C529 = 45
 R208: C15 + C16 + C17 + C530 = 45
 R209: C18 + C19 + C20 + C531 = 45
 R210: C21 + C22 + C23 + C532 = 45
 R211: C24 + C25 + C26 + C533 = 45
 R212: C27 + C28 + C29 + C534 = 45
 R213: C30 + C31 + C32 + C535 = 45
 R214: C33 + C34 + C35 + C536 = 45
 R215: C36 + C37 + C38 + C537 = 45
 R216: C39 + C40 + C41 + C538 = 45
 R217: C42 + C43 + C44 + C539 = 45
 R218: C45 + C46 + C47 + C540 = 45
 R219: C48 + C49 + C50 + C541 = 45
 R220: C51 + C52 + C53 + C542 = 45
 R221: C54 + C55 + C56 + C543 = 45
 R222: C57 + C58 + C59 + C544 = 45
 R223: C60 + C61 + C62 + C545 = 45
 R224: C63 + C64 + C65 + C546 = 45
 R225: C66 + C67 + C68 + C547 = 45
 R226: C69 + C70 + C71 + C548 = 45
 R227: C72 + C73 + C74 + C549 = 45
Bounds
 C0 <= 200
 C1 <= 200
 C2 <= 200
 C3 <= 200
 C4 <= 200
 C5 <= 200
 C6 <= 200
 C7 <= 200
 C8 <= 200
 C9 <= 200
 C10 <= 200
 C11 <= 200
 C12 <= 200
 C13 <= 200
 C14 <= 200
 C15 <= 200
 C16 <= 200
 C17 <= 200
 C18 <= 200
 C19 <= 200
 C20 <= 200
 C21 <= 200
 C22 <= 200
 C23 <= 200
 C24 <= 200
 C25 <= 200
 C26 <= 200
 C27 <= 200
 C28 <= 200
 C29 <= 200
 C30 <= 200
 C31 <= 200
 C32 <= 200
 C33 <= 200
 C34 <= 200
 C35 <= 200
 C36 <= 200
 C37 <= 200
 C38 <= 200
 C39 <= 200
 C40 <= 200
 C41 <= 200
 C42 <= 200
 C43 <= 200
 C44 <= 200
 C45 <= 200
 C46 <= 200
 C47 <= 200
 C48 <= 200
 C49 <= 200
 C50 <= 200
 C51 <= 200
 C52 <= 200
 C53 <= 200
 C54 <= 200
 C55 <= 200
 C56 <= 200
 C57 <= 200
 C58 <= 200
 C59 <= 200
 C60 <= 200
 C61 <= 200
 C62 <= 200
 C63 <= 200
 C64 <= 200
 C65 <= 200
 C66 <= 200
 C67 <= 200
 C68 <= 200
 C69 <= 200
 C70 <= 200
 C71 <= 200
 C72 <= 200
 C73 <= 200
 C74 <= 200
 C300 <= 200
 C301 <= 200
 C302 <= 200
 C303 <= 200
 C304 <= 200
 C305 <= 200
 C306 <= 200
 C307 <= 200
 C308 <= 200
 C309 <= 200
 C310 <= 200
 C311 <= 200
 C312 <= 200
 C313 <= 200
 C314 <= 200
 C315 <= 200
 C316 <= 200
 C317 <= 200
 C318 <= 200
 C319 <= 200
 C320 <= 200
 C321 <= 200
 C322 <= 200
 C323 <= 200
 C324 <= 200
 C325 <= 200
 C326 <= 200
 C327 <= 200
 C328 <= 200
 C329 <= 200
 C330 <= 200
 C331 <= 200
 C332 <= 200
 C333 <= 200
 C334 <= 200
 C335 <= 200
 C336 <= 200
 C337 <= 200
 C338 <= 200
 C339 <= 200
 C340 <= 200
 C341 <= 200
 C342 <= 200
 C343 <= 200
 C344 <= 200
 C345 <= 200
 C346 <= 200
 C347 <= 200
 C348 <= 200
 C349 <= 200
 C350 <= 200
 C351 <= 200
 C352 <= 200
 C353 <= 200
 C354 <= 200
 C355 <= 200
 C356 <= 200
 C357 <= 200
 C358 <= 200
 C359 <= 200
 C360 <= 200
 C361 <= 200
 C362 <= 200
 C363 <= 200
 C364 <= 200
 C365 <= 200
 C366 <= 200
 C367 <= 200
 C368 <= 200
 C369 <= 200
 C370 <= 200
 C371 <= 200
 C372 <= 200
 C373 <= 200
 C374 <= 200
 C375 <= 200
 C376 <= 200
 C377 <= 200
 C378 <= 200
 C379 <= 200
 C380 <= 200
 C381 <= 200
 C382 <= 200
 C383 <= 200
 C384 <= 200
 C385 <= 200
 C386 <= 200
 C387 <= 200
 C388 <= 200
 C389 <= 200
 C390 <= 200
 C391 <= 200
 C392 <= 200
 C393 <= 200
 C394 <= 200
 C395 <= 200
 C396 <= 200
 C397 <= 200
 C398 <= 200
 C399 <= 200
 C400 <= 200
 C401 <= 200
 C402 <= 200
 C403 <= 200
 C404 <= 200
 C405 <= 200
 C406 <= 200
 C407 <= 200
 C408 <= 200
 C409 <= 200
 C410 <= 200
 C411 <= 200
 C412 <= 200
 C413 <= 200
 C414 <= 200
 C415 <= 200
 C416 <= 200
 C417 <= 200
 C418 <= 200
 C419 <= 200
 C420 <= 200
 C421 <= 200
 C422 <= 200
 C423 <= 200
 C424 <= 200
 C425 <= 200
 C426 <= 200
 C427 <= 200
 C428 <= 200
 C429 <= 200
 C430 <= 200
 C431 <= 200
 C432 <= 200
 C433 <= 200
 C434 <= 200
 C435 <= 200
 C436 <= 200
 C437 <= 200
 C438 <= 200
 C439 <= 200
 C440 <= 200
 C441 <= 200
 C442 <= 200
 C443 <= 200
 C444 <= 200
 C445 <= 200
 C446 <= 200
 C447 <= 200
 C448 <= 200
 C449 <= 200
 C525 <= 200
 C526 <= 200
 C527 <= 200
 C528 <= 200
 C529 <= 200
 C530 <= 200
 C531 <= 200
 C532 <= 200
 C533 <= 200
 C534 <= 200
 C535 <= 200
 C536 <= 200
 C537 <= 200
 C538 <= 200
 C539 <= 200
 C540 <= 200
 C541 <= 200
 C542 <= 200
 C543 <= 200
 C544 <= 200
 C545 <= 200
 C546 <= 200
 C547 <= 200
 C548 <= 200
 C549 <= 200
Binaries
 C75 C76 C77 C78 C79 C80 C81 C82 C83 C84 C85 C86 C87 C88 C89 C90 C91 C92
 C93 C94 C95 C96 C97 C98 C99 C100 C101 C102 C103 C104 C105 C106 C107 C108
 C109 C110 C111 C112 C113 C114 C115 C116 C117 C118 C119 C120 C121 C122 C123
 C124 C125 C126 C127 C128 C129 C130 C131 C132 C133 C134 C135 C136 C137 C138
 C139 C140 C141 C142 C143 C144 C145 C146 C147 C148 C149 C150 C151 C152 C153
 C154 C155 C156 C157 C158 C159 C160 C161 C162 C163 C164 C165 C166 C167 C168
 C169 C170 C171 C172 C173 C174 C175 C176 C177 C178 C179 C180 C181 C182 C183
 C184 C185 C186 C187 C188 C189 C190 C191 C192 C193 C194 C195 C196 C197 C198
 C199 C200 C201 C202 C203 C204 C205 C206 C207 C208 C209 C210 C211 C212 C213
 C214 C215 C216 C217 C218 C219 C220 C221 C222 C223 C224 C225 C226 C227 C228
 C229 C230 C231 C232 C233 C234 C235 C236 C237 C238 C239 C240 C241 C242 C243
 C244 C245 C246 C247 C248 C249 C250 C251 C252 C253 C254 C255 C256 C257 C258
 C259 C260 C261 C262 C263 C264 C265 C266 C267 C268 C269 C270 C271 C272 C273
 C274 C275 C276 C277 C278 C279 C280 C281 C282 C283 C284 C285 C286 C287 C288
 C289 C290 C291 C292 C293 C294 C295 C296 C297 C298 C299 C450 C451 C452 C453
 C454 C455 C456 C457 C458 C459 C460 C461 C462 C463 C464 C465 C466 C467 C468
 C469 C470 C471 C472 C473 C474 C475 C476 C477 C478 C479 C480 C481 C482 C483
 C484 C485 C486 C487 C488 C489 C490 C491 C492 C493 C494 C495 C496 C497 C498
 C499 C500 C501 C502 C503 C504 C505 C506 C507 C508 C509 C510 C511 C512 C513
 C514 C515 C516 C517 C518 C519 C520 C521 C522 C523 C524
End
